certificates/rado_a11_c27_N50.cnf
c Rad2 upper bound instance: x1 + 11*x2 - x3 = 27, interval [1,50]
p cnf 50 376
1 3 7 0
-1 -3 -7 0
1 4 18 0
-1 -4 -18 0
1 5 29 0
-1 -5 -29 0
1 6 40 0
-1 -6 -40 0
2 3 8 0
-2 -3 -8 0
2 4 19 0
-2 -4 -19 0
2 5 30 0
-2 -5 -30 0
2 6 41 0
-2 -6 -41 0
3 9 0
-3 -9 0
3 4 20 0
-3 -4 -20 0
3 5 31 0
-3 -5 -31 0
3 6 42 0
-3 -6 -42 0
3 4 10 0
-3 -4 -10 0
4 21 0
-4 -21 0
4 5 32 0
-4 -5 -32 0
4 6 43 0
-4 -6 -43 0
3 5 11 0
-3 -5 -11 0
4 5 22 0
-4 -5 -22 0
5 33 0
-5 -33 0
5 6 44 0
-5 -6 -44 0
1 2 6 0
-1 -2 -6 0
3 6 12 0
-3 -6 -12 0
4 6 23 0
-4 -6 -23 0
5 6 34 0
-5 -6 -34 0
6 45 0
-6 -45 0
2 7 0
-2 -7 0
3 7 13 0
-3 -7 -13 0
4 7 24 0
-4 -7 -24 0
5 7 35 0
-5 -7 -35 0
6 7 46 0
-6 -7 -46 0
3 8 14 0
-3 -8 -14 0
4 8 25 0
-4 -8 -25 0
5 8 36 0
-5 -8 -36 0
6 8 47 0
-6 -8 -47 0
2 4 9 0
-2 -4 -9 0
3 9 15 0
-3 -9 -15 0
4 9 26 0
-4 -9 -26 0
5 9 37 0
-5 -9 -37 0
6 9 48 0
-6 -9 -48 0
2 5 10 0
-2 -5 -10 0
3 10 16 0
-3 -10 -16 0
4 10 27 0
-4 -10 -27 0
5 10 38 0
-5 -10 -38 0
6 10 49 0
-6 -10 -49 0
2 6 11 0
-2 -6 -11 0
3 11 17 0
-3 -11 -17 0
4 11 28 0
-4 -11 -28 0
5 11 39 0
-5 -11 -39 0
6 11 50 0
-6 -11 -50 0
2 7 12 0
-2 -7 -12 0
3 12 18 0
-3 -12 -18 0
4 12 29 0
-4 -12 -29 0
5 12 40 0
-5 -12 -40 0
2 8 13 0
-2 -8 -13 0
3 13 19 0
-3 -13 -19 0
4 13 30 0
-4 -13 -30 0
5 13 41 0
-5 -13 -41 0
2 9 14 0
-2 -9 -14 0
3 14 20 0
-3 -14 -20 0
4 14 31 0
-4 -14 -31 0
5 14 42 0
-5 -14 -42 0
2 10 15 0
-2 -10 -15 0
3 15 21 0
-3 -15 -21 0
4 15 32 0
-4 -15 -32 0
5 15 43 0
-5 -15 -43 0
2 11 16 0
-2 -11 -16 0
3 16 22 0
-3 -16 -22 0
4 16 33 0
-4 -16 -33 0
5 16 44 0
-5 -16 -44 0
1 17 0
-1 -17 0
2 12 17 0
-2 -12 -17 0
3 17 23 0
-3 -17 -23 0
4 17 34 0
-4 -17 -34 0
5 17 45 0
-5 -17 -45 0
1 2 18 0
-1 -2 -18 0
2 13 18 0
-2 -13 -18 0
3 18 24 0
-3 -18 -24 0
4 18 35 0
-4 -18 -35 0
5 18 46 0
-5 -18 -46 0
1 3 19 0
-1 -3 -19 0
2 14 19 0
-2 -14 -19 0
3 19 25 0
-3 -19 -25 0
4 19 36 0
-4 -19 -36 0
5 19 47 0
-5 -19 -47 0
1 4 20 0
-1 -4 -20 0
2 15 20 0
-2 -15 -20 0
3 20 26 0
-3 -20 -26 0
4 20 37 0
-4 -20 -37 0
5 20 48 0
-5 -20 -48 0
1 5 21 0
-1 -5 -21 0
2 16 21 0
-2 -16 -21 0
3 21 27 0
-3 -21 -27 0
4 21 38 0
-4 -21 -38 0
5 21 49 0
-5 -21 -49 0
1 6 22 0
-1 -6 -22 0
2 17 22 0
-2 -17 -22 0
3 22 28 0
-3 -22 -28 0
4 22 39 0
-4 -22 -39 0
5 22 50 0
-5 -22 -50 0
1 7 23 0
-1 -7 -23 0
2 18 23 0
-2 -18 -23 0
3 23 29 0
-3 -23 -29 0
4 23 40 0
-4 -23 -40 0
1 8 24 0
-1 -8 -24 0
2 19 24 0
-2 -19 -24 0
3 24 30 0
-3 -24 -30 0
4 24 41 0
-4 -24 -41 0
1 9 25 0
-1 -9 -25 0
2 20 25 0
-2 -20 -25 0
3 25 31 0
-3 -25 -31 0
4 25 42 0
-4 -25 -42 0
1 10 26 0
-1 -10 -26 0
2 21 26 0
-2 -21 -26 0
3 26 32 0
-3 -26 -32 0
4 26 43 0
-4 -26 -43 0
1 11 27 0
-1 -11 -27 0
2 22 27 0
-2 -22 -27 0
3 27 33 0
-3 -27 -33 0
4 27 44 0
-4 -27 -44 0
1 12 28 0
-1 -12 -28 0
2 23 28 0
-2 -23 -28 0
3 28 34 0
-3 -28 -34 0
4 28 45 0
-4 -28 -45 0
1 13 29 0
-1 -13 -29 0
2 24 29 0
-2 -24 -29 0
3 29 35 0
-3 -29 -35 0
4 29 46 0
-4 -29 -46 0
1 14 30 0
-1 -14 -30 0
2 25 30 0
-2 -25 -30 0
3 30 36 0
-3 -30 -36 0
4 30 47 0
-4 -30 -47 0
1 15 31 0
-1 -15 -31 0
2 26 31 0
-2 -26 -31 0
3 31 37 0
-3 -31 -37 0
4 31 48 0
-4 -31 -48 0
1 16 32 0
-1 -16 -32 0
2 27 32 0
-2 -27 -32 0
3 32 38 0
-3 -32 -38 0
4 32 49 0
-4 -32 -49 0
1 17 33 0
-1 -17 -33 0
2 28 33 0
-2 -28 -33 0
3 33 39 0
-3 -33 -39 0
4 33 50 0
-4 -33 -50 0
1 18 34 0
-1 -18 -34 0
2 29 34 0
-2 -29 -34 0
3 34 40 0
-3 -34 -40 0
1 19 35 0
-1 -19 -35 0
2 30 35 0
-2 -30 -35 0
3 35 41 0
-3 -35 -41 0
1 20 36 0
-1 -20 -36 0
2 31 36 0
-2 -31 -36 0
3 36 42 0
-3 -36 -42 0
1 21 37 0
-1 -21 -37 0
2 32 37 0
-2 -32 -37 0
3 37 43 0
-3 -37 -43 0
1 22 38 0
-1 -22 -38 0
2 33 38 0
-2 -33 -38 0
3 38 44 0
-3 -38 -44 0
1 23 39 0
-1 -23 -39 0
2 34 39 0
-2 -34 -39 0
3 39 45 0
-3 -39 -45 0
1 24 40 0
-1 -24 -40 0
2 35 40 0
-2 -35 -40 0
3 40 46 0
-3 -40 -46 0
1 25 41 0
-1 -25 -41 0
2 36 41 0
-2 -36 -41 0
3 41 47 0
-3 -41 -47 0
1 26 42 0
-1 -26 -42 0
2 37 42 0
-2 -37 -42 0
3 42 48 0
-3 -42 -48 0
1 27 43 0
-1 -27 -43 0
2 38 43 0
-2 -38 -43 0
3 43 49 0
-3 -43 -49 0
1 28 44 0
-1 -28 -44 0
2 39 44 0
-2 -39 -44 0
3 44 50 0
-3 -44 -50 0
1 29 45 0
-1 -29 -45 0
2 40 45 0
-2 -40 -45 0
1 30 46 0
-1 -30 -46 0
2 41 46 0
-2 -41 -46 0
1 31 47 0
-1 -31 -47 0
2 42 47 0
-2 -42 -47 0
1 32 48 0
-1 -32 -48 0
2 43 48 0
-2 -43 -48 0
1 33 49 0
-1 -33 -49 0
2 44 49 0
-2 -44 -49 0
1 34 50 0
-1 -34 -50 0
2 45 50 0
-2 -45 -50 0
