certificates/rado_a11_c27_N50.drat
-45 -47 -50 0
7 44 -6 0
-47 -48 -50 0
-6 -48 -50 0
6 -50 0
2 10 48 0
-49 -50 0
-2 -6 0
d -2 -1 -6 0
-6 -50 0
d -11 -6 -50 0
-50 0
-6 0
45 0
11 0
2 0
-7 0
-40 0
-16 0
46 0
1 0
-30 0
-41 0
-17 0
-29 0
-27 0
-18 0
3 0
-9 0
-39 0
-19 0
-8 0
-5 0
48 0
47 0
33 0
44 0
34 0
35 0
36 0
37 0
12 0
13 0
22 0
-32 0
-43 0
-42 0
-31 0
-38 0
-49 0
-28 0
-20 0
-21 0
4 0
15 0
14 0
10 0
0
